830
10
101410
11510
 0 1 1 92 140  10 0 6 33 63 23 56 24 49 16 0
 0 1 1 99 138  11 0 62 22 64 42 41 43 1 73 51 0
 0 1 1 74 140  9 0 68 2 28 61 21 74 30 0
 0 1 1 102 135  12 0 29 37 20 70 60 71 69 36 47 48 0
 0 1 1 83 135  10 0 46 8 54 13 57 15 5 45 0
 0 1 1 36 135  8 0 75 4 27 52 34 67 0
 0 1 1 86 135  9 0 26 53 14 59 19 35 7 0
 0 1 1 77 128  7 0 58 38 65 66 11 0
 0 1 1 116 140  9 0 40 50 18 55 25 31 10 0
 0 1 1 65 138  10 0 17 3 44 32 9 39 72 12 0
